NAME : cgl_33.9071.tour
COMMENT : Length = 9071
COMMENT : Found by LKH-3 [Keld Helsgaun] Thu Jun 26 21:26:48 2025
TYPE : TOUR
DIMENSION : 34
TOUR_SECTION
18
16
21
22
20
24
23
25
26
27
28
29
30
33
31
32
34
3
2
1
4
5
6
7
8
10
11
12
9
13
15
14
17
19
-1
EOF
